data;

param n := 13;
param s := 0;
param t := 12;

param : E :   c :=
0  1	1
0  2	1
1  2	1
1  3	1
2  12	1
3  4	1
3  5	1
4  5	1
4  8	1
5  2	1
5  6	1
5  7	1
6  8	1
7  8	1
8  9	1
9  10	1
9  11	1
10 11	1
11 12	1
;

end;
